n_machines = 10;
n_resources = 15;
n_jobs = 75;
horizon = 386;
LB = 52;
n_jobs_per_resource = [2, 6, 6, 5, 8, 2, 7, 7, 7, 6, 5, 8, 2, 3, 1];
duration = [2, 3, 7, 5, 8, 4, 3, 8, 3, 3, 5, 7, 9, 7, 7, 1, 9, 6, 8, 8, 7, 7, 3, 6, 2, 7, 9, 1, 2, 9, 4, 8, 8, 7, 8, 8, 5, 2, 6, 5, 8, 8, 1, 4, 1, 8, 4, 1, 3, 7, 5, 5, 6, 2, 3, 1, 3, 5, 8, 9, 8, 3, 6, 3, 1, 6, 4, 5, 5, 7, 1, 3, 9, 3, 3]